c colouring generated by benchmark framework
p edge 300 21375
v 1 11
v 2 17
v 3 17
v 4 8
v 5 1
v 6 11
v 7 9
v 8 13
v 9 2
v 10 18
v 11 8
v 12 19
v 13 4
v 14 15
v 15 16
v 16 0
v 17 8
v 18 8
v 19 9
v 20 12
v 21 9
v 22 2
v 23 17
v 24 7
v 25 16
v 26 13
v 27 13
v 28 13
v 29 7
v 30 11
v 31 9
v 32 4
v 33 18
v 34 18
v 35 1
v 36 7
v 37 7
v 38 3
v 39 15
v 40 15
v 41 10
v 42 10
v 43 8
v 44 1
v 45 0
v 46 8
v 47 18
v 48 14
v 49 4
v 50 5
v 51 18
v 52 1
v 53 12
v 54 15
v 55 13
v 56 9
v 57 11
v 58 5
v 59 19
v 60 17
v 61 6
v 62 3
v 63 5
v 64 13
v 65 8
v 66 16
v 67 8
v 68 8
v 69 17
v 70 12
v 71 18
v 72 0
v 73 13
v 74 5
v 75 9
v 76 7
v 77 3
v 78 7
v 79 3
v 80 3
v 81 14
v 82 15
v 83 4
v 84 19
v 85 3
v 86 14
v 87 5
v 88 0
v 89 6
v 90 19
v 91 10
v 92 14
v 93 10
v 94 9
v 95 6
v 96 9
v 97 17
v 98 12
v 99 17
v 100 3
v 101 0
v 102 15
v 103 3
v 104 13
v 105 4
v 106 5
v 107 1
v 108 14
v 109 6
v 110 6
v 111 11
v 112 12
v 113 16
v 114 18
v 115 4
v 116 4
v 117 3
v 118 1
v 119 15
v 120 2
v 121 6
v 122 2
v 123 13
v 124 6
v 125 17
v 126 17
v 127 1
v 128 10
v 129 16
v 130 10
v 131 18
v 132 1
v 133 8
v 134 10
v 135 7
v 136 0
v 137 5
v 138 10
v 139 12
v 140 2
v 141 15
v 142 0
v 143 10
v 144 6
v 145 18
v 146 12
v 147 10
v 148 19
v 149 13
v 150 5
v 151 19
v 152 7
v 153 9
v 154 13
v 155 16
v 156 8
v 157 11
v 158 1
v 159 16
v 160 9
v 161 16
v 162 19
v 163 16
v 164 11
v 165 10
v 166 10
v 167 17
v 168 12
v 169 5
v 170 19
v 171 13
v 172 15
v 173 15
v 174 14
v 175 11
v 176 0
v 177 1
v 178 17
v 179 11
v 180 15
v 181 7
v 182 7
v 183 5
v 184 4
v 185 14
v 186 6
v 187 12
v 188 2
v 189 4
v 190 2
v 191 6
v 192 1
v 193 9
v 194 19
v 195 16
v 196 10
v 197 15
v 198 18
v 199 18
v 200 17
v 201 13
v 202 6
v 203 0
v 204 9
v 205 3
v 206 0
v 207 3
v 208 6
v 209 6
v 210 16
v 211 5
v 212 14
v 213 8
v 214 12
v 215 12
v 216 11
v 217 9
v 218 14
v 219 7
v 220 19
v 221 16
v 222 13
v 223 11
v 224 15
v 225 16
v 226 1
v 227 14
v 228 2
v 229 4
v 230 11
v 231 2
v 232 13
v 233 9
v 234 7
v 235 15
v 236 14
v 237 11
v 238 0
v 239 19
v 240 0
v 241 19
v 242 6
v 243 10
v 244 0
v 245 12
v 246 14
v 247 5
v 248 16
v 249 11
v 250 3
v 251 18
v 252 7
v 253 7
v 254 2
v 255 19
v 256 10
v 257 4
v 258 5
v 259 3
v 260 3
v 261 5
v 262 11
v 263 17
v 264 17
v 265 1
v 266 18
v 267 3
v 268 4
v 269 2
v 270 18
v 271 18
v 272 9
v 273 4
v 274 2
v 275 12
v 276 14
v 277 6
v 278 2
v 279 5
v 280 0
v 281 7
v 282 8
v 283 12
v 284 1
v 285 12
v 286 15
v 287 16
v 288 19
v 289 4
v 290 19
v 291 17
v 292 14
v 293 1
v 294 4
v 295 8
v 296 0
v 297 14
v 298 2
v 299 8
v 300 2
